n = 100;
C = 513;
w = [199,910,417,134,319,348,95,185,836,143,993,563,772,708,568,412,203,212,842,925,850,540,513,734,547,565,857,849,959,834,413,772,705,196,306,331,264,985,978,444,368,296,851,985,793,671,709,137,943,30,256,751,528,473,220,890,186,482,566,844,42,908,874,403,222,369,891,762,212,589,341,521,489,288,44,473,771,24,770,873,446,661,861,116,179,708,503,424,829,213,540,25,178,524,15,188,584,147,261,668];
p = [287,986,388,42,320,398,26,132,796,193,972,658,789,627,560,489,234,148,867,945,829,489,578,808,591,515,936,918,1025,927,475,806,634,291,311,412,245,967,953,523,464,346,919,1076,718,634,788,218,936,7,342,729,453,398,265,820,95,487,497,749,62,831,862,430,156,304,952,770,216,573,320,597,404,319,-15,401,680,117,823,928,477,612,839,94,124,701,568,428,807,222,491,-48,267,475,104,249,621,183,266,676];
